(declare-const X String)
; User-Agent\x3A\s+GET\d+\x2Fcommunicatortb
(assert (str.in_re X (re.++ (str.to_re "User-Agent:") (re.+ (re.union (str.to_re " ") (str.to_re "\u{9}") (str.to_re "\u{a}") (str.to_re "\u{c}") (str.to_re "\u{d}"))) (str.to_re "GET") (re.+ (re.range "0" "9")) (str.to_re "/communicatortb\u{a}"))))
; ^\€?(\d{1,3}[.](\d{3}[.])*\d{3}|\d+)([,]\d{1,2})?$
(assert (not (str.in_re X (re.++ (re.opt (str.to_re "\u{20ac}")) (re.union (re.++ ((_ re.loop 1 3) (re.range "0" "9")) (str.to_re ".") (re.* (re.++ ((_ re.loop 3 3) (re.range "0" "9")) (str.to_re "."))) ((_ re.loop 3 3) (re.range "0" "9"))) (re.+ (re.range "0" "9"))) (re.opt (re.++ (str.to_re ",") ((_ re.loop 1 2) (re.range "0" "9")))) (str.to_re "\u{a}")))))
; ^\s*[a-zA-Z\s]+\,[0-9\s]+\s*$
(assert (not (str.in_re X (re.++ (re.* (re.union (str.to_re " ") (str.to_re "\u{9}") (str.to_re "\u{a}") (str.to_re "\u{c}") (str.to_re "\u{d}"))) (re.+ (re.union (re.range "a" "z") (re.range "A" "Z") (str.to_re " ") (str.to_re "\u{9}") (str.to_re "\u{a}") (str.to_re "\u{c}") (str.to_re "\u{d}"))) (str.to_re ",") (re.+ (re.union (re.range "0" "9") (str.to_re " ") (str.to_re "\u{9}") (str.to_re "\u{a}") (str.to_re "\u{c}") (str.to_re "\u{d}"))) (re.* (re.union (str.to_re " ") (str.to_re "\u{9}") (str.to_re "\u{a}") (str.to_re "\u{c}") (str.to_re "\u{d}"))) (str.to_re "\u{a}")))))
; ^[A-Za-z]{6}[0-9]{2}[A-Za-z]{1}[0-9]{2}[A-Za-z]{1}[0-9]{3}[A-Za-z]{1}$
(assert (str.in_re X (re.++ ((_ re.loop 6 6) (re.union (re.range "A" "Z") (re.range "a" "z"))) ((_ re.loop 2 2) (re.range "0" "9")) ((_ re.loop 1 1) (re.union (re.range "A" "Z") (re.range "a" "z"))) ((_ re.loop 2 2) (re.range "0" "9")) ((_ re.loop 1 1) (re.union (re.range "A" "Z") (re.range "a" "z"))) ((_ re.loop 3 3) (re.range "0" "9")) ((_ re.loop 1 1) (re.union (re.range "A" "Z") (re.range "a" "z"))) (str.to_re "\u{a}"))))
(check-sat)
